0 4
0 5
0 6
0 7
0 32
1 4
1 5
1 6
1 7
1 33
2 4
2 5
2 6
2 7
2 34
3 4
3 5
3 6
3 7
3 35
4 12
5 13
6 14
7 15
8 12
8 13
8 14
8 15
8 40
9 12
9 13
9 14
9 15
9 41
10 12
10 13
10 14
10 15
10 42
11 12
11 13
11 14
11 15
11 43
12 20
13 21
14 22
15 23
16 20
16 21
16 22
16 23
16 48
17 20
17 21
17 22
17 23
17 49
18 20
18 21
18 22
18 23
18 50
19 20
19 21
19 22
19 23
19 51
20 28
21 29
22 30
23 31
24 28
24 29
24 30
24 31
24 56
25 28
25 29
25 30
25 31
25 57
26 28
26 29
26 30
26 31
26 58
27 28
27 29
27 30
27 31
27 59
32 36
32 37
32 38
32 39
32 64
33 36
33 37
33 38
33 39
33 65
34 36
34 37
34 38
34 39
34 66
35 36
35 37
35 38
35 39
35 67
36 44
37 45
38 46
39 47
40 44
40 45
40 46
40 47
40 72
41 44
41 45
41 46
41 47
41 73
42 44
42 45
42 46
42 47
42 74
43 44
43 45
43 46
43 47
43 75
44 52
45 53
46 54
47 55
48 52
48 53
48 54
48 55
48 80
49 52
49 53
49 54
49 55
49 81
50 52
50 53
50 54
50 55
50 82
51 52
51 53
51 54
51 55
51 83
52 60
53 61
54 62
55 63
56 60
56 61
56 62
56 63
56 88
57 60
57 61
57 62
57 63
57 89
58 60
58 61
58 62
58 63
58 90
59 60
59 61
59 62
59 63
59 91
64 68
64 69
64 70
64 71
65 68
65 69
65 70
65 71
66 68
66 69
66 70
66 71
67 68
67 69
67 70
67 71
68 76
69 77
70 78
71 79
72 76
72 77
72 78
72 79
73 76
73 77
73 78
73 79
74 76
74 77
74 78
74 79
75 76
75 77
75 78
75 79
76 84
77 85
78 86
79 87
80 84
80 85
80 86
80 87
81 84
81 85
81 86
81 87
82 84
82 85
82 86
82 87
83 84
83 85
83 86
83 87
84 92
85 93
86 94
87 95
88 92
88 93
88 94
88 95
89 92
89 93
89 94
89 95
90 92
90 93
90 94
90 95
91 92
91 93
91 94
91 95
